1041,766
532,112
1155,331
597,-127
1020,745
663,463
291,406
624,388
820,833
482,342
267,341
751,503
589,121
829,429
652,410
844,726
207,481
921,528
504,59
254,623
1221,406
738,388
727,702
1117,89
937,489
734,433
681,196
756,880
512,575
808,533
1184,485
830,700
385,110
741,406
469,194
776,219
888,438
